(set-logic BV) (define-fun origCir ((n131 Bool) (n107 Bool) (n114 Bool) (n102 Bool) (n85 Bool)) Bool (and n131 (and (not (and n114 n107)) (and n102 n85)))) (synth-fun skel ((n131 Bool) (n107 Bool) (n114 Bool) (n102 Bool) (n85 Bool)) Bool) (declare-var n131 Bool) (declare-var n107 Bool) (declare-var n114 Bool) (declare-var n102 Bool) (declare-var n85 Bool) (constraint (= (origCir n131 n107 n114 n102 n85) (skel n131 n107 n114 n102 n85))) (check-synth)
